p cnf 64 528
1 2 3 4 5 6 7 8 0
9 10 11 12 13 14 15 16 0
17 18 19 20 21 22 23 24 0
25 26 27 28 29 30 31 32 0
33 34 35 36 37 38 39 40 0
41 42 43 44 45 46 47 48 0
49 50 51 52 53 54 55 56 0
57 58 59 60 61 62 63 64 0
-1 0
-10 0
-19 0
-28 0
-37 0
-46 0
-55 0
-64 0
-1 -1 1 0
-1 -2 2 0
-1 -3 3 0
-1 -4 4 0
-1 -5 5 0
-1 -6 6 0
-1 -7 7 0
-1 -8 8 0
-2 -9 1 0
-2 -10 2 0
-2 -11 3 0
-2 -12 4 0
-2 -13 5 0
-2 -14 6 0
-2 -15 7 0
-2 -16 8 0
-3 -17 1 0
-3 -18 2 0
-3 -19 3 0
-3 -20 4 0
-3 -21 5 0
-3 -22 6 0
-3 -23 7 0
-3 -24 8 0
-4 -25 1 0
-4 -26 2 0
-4 -27 3 0
-4 -28 4 0
-4 -29 5 0
-4 -30 6 0
-4 -31 7 0
-4 -32 8 0
-5 -33 1 0
-5 -34 2 0
-5 -35 3 0
-5 -36 4 0
-5 -37 5 0
-5 -38 6 0
-5 -39 7 0
-5 -40 8 0
-6 -41 1 0
-6 -42 2 0
-6 -43 3 0
-6 -44 4 0
-6 -45 5 0
-6 -46 6 0
-6 -47 7 0
-6 -48 8 0
-7 -49 1 0
-7 -50 2 0
-7 -51 3 0
-7 -52 4 0
-7 -53 5 0
-7 -54 6 0
-7 -55 7 0
-7 -56 8 0
-8 -57 1 0
-8 -58 2 0
-8 -59 3 0
-8 -60 4 0
-8 -61 5 0
-8 -62 6 0
-8 -63 7 0
-8 -64 8 0
-9 -1 9 0
-9 -2 10 0
-9 -3 11 0
-9 -4 12 0
-9 -5 13 0
-9 -6 14 0
-9 -7 15 0
-9 -8 16 0
-10 -9 9 0
-10 -10 10 0
-10 -11 11 0
-10 -12 12 0
-10 -13 13 0
-10 -14 14 0
-10 -15 15 0
-10 -16 16 0
-11 -17 9 0
-11 -18 10 0
-11 -19 11 0
-11 -20 12 0
-11 -21 13 0
-11 -22 14 0
-11 -23 15 0
-11 -24 16 0
-12 -25 9 0
-12 -26 10 0
-12 -27 11 0
-12 -28 12 0
-12 -29 13 0
-12 -30 14 0
-12 -31 15 0
-12 -32 16 0
-13 -33 9 0
-13 -34 10 0
-13 -35 11 0
-13 -36 12 0
-13 -37 13 0
-13 -38 14 0
-13 -39 15 0
-13 -40 16 0
-14 -41 9 0
-14 -42 10 0
-14 -43 11 0
-14 -44 12 0
-14 -45 13 0
-14 -46 14 0
-14 -47 15 0
-14 -48 16 0
-15 -49 9 0
-15 -50 10 0
-15 -51 11 0
-15 -52 12 0
-15 -53 13 0
-15 -54 14 0
-15 -55 15 0
-15 -56 16 0
-16 -57 9 0
-16 -58 10 0
-16 -59 11 0
-16 -60 12 0
-16 -61 13 0
-16 -62 14 0
-16 -63 15 0
-16 -64 16 0
-17 -1 17 0
-17 -2 18 0
-17 -3 19 0
-17 -4 20 0
-17 -5 21 0
-17 -6 22 0
-17 -7 23 0
-17 -8 24 0
-18 -9 17 0
-18 -10 18 0
-18 -11 19 0
-18 -12 20 0
-18 -13 21 0
-18 -14 22 0
-18 -15 23 0
-18 -16 24 0
-19 -17 17 0
-19 -18 18 0
-19 -19 19 0
-19 -20 20 0
-19 -21 21 0
-19 -22 22 0
-19 -23 23 0
-19 -24 24 0
-20 -25 17 0
-20 -26 18 0
-20 -27 19 0
-20 -28 20 0
-20 -29 21 0
-20 -30 22 0
-20 -31 23 0
-20 -32 24 0
-21 -33 17 0
-21 -34 18 0
-21 -35 19 0
-21 -36 20 0
-21 -37 21 0
-21 -38 22 0
-21 -39 23 0
-21 -40 24 0
-22 -41 17 0
-22 -42 18 0
-22 -43 19 0
-22 -44 20 0
-22 -45 21 0
-22 -46 22 0
-22 -47 23 0
-22 -48 24 0
-23 -49 17 0
-23 -50 18 0
-23 -51 19 0
-23 -52 20 0
-23 -53 21 0
-23 -54 22 0
-23 -55 23 0
-23 -56 24 0
-24 -57 17 0
-24 -58 18 0
-24 -59 19 0
-24 -60 20 0
-24 -61 21 0
-24 -62 22 0
-24 -63 23 0
-24 -64 24 0
-25 -1 25 0
-25 -2 26 0
-25 -3 27 0
-25 -4 28 0
-25 -5 29 0
-25 -6 30 0
-25 -7 31 0
-25 -8 32 0
-26 -9 25 0
-26 -10 26 0
-26 -11 27 0
-26 -12 28 0
-26 -13 29 0
-26 -14 30 0
-26 -15 31 0
-26 -16 32 0
-27 -17 25 0
-27 -18 26 0
-27 -19 27 0
-27 -20 28 0
-27 -21 29 0
-27 -22 30 0
-27 -23 31 0
-27 -24 32 0
-28 -25 25 0
-28 -26 26 0
-28 -27 27 0
-28 -28 28 0
-28 -29 29 0
-28 -30 30 0
-28 -31 31 0
-28 -32 32 0
-29 -33 25 0
-29 -34 26 0
-29 -35 27 0
-29 -36 28 0
-29 -37 29 0
-29 -38 30 0
-29 -39 31 0
-29 -40 32 0
-30 -41 25 0
-30 -42 26 0
-30 -43 27 0
-30 -44 28 0
-30 -45 29 0
-30 -46 30 0
-30 -47 31 0
-30 -48 32 0
-31 -49 25 0
-31 -50 26 0
-31 -51 27 0
-31 -52 28 0
-31 -53 29 0
-31 -54 30 0
-31 -55 31 0
-31 -56 32 0
-32 -57 25 0
-32 -58 26 0
-32 -59 27 0
-32 -60 28 0
-32 -61 29 0
-32 -62 30 0
-32 -63 31 0
-32 -64 32 0
-33 -1 33 0
-33 -2 34 0
-33 -3 35 0
-33 -4 36 0
-33 -5 37 0
-33 -6 38 0
-33 -7 39 0
-33 -8 40 0
-34 -9 33 0
-34 -10 34 0
-34 -11 35 0
-34 -12 36 0
-34 -13 37 0
-34 -14 38 0
-34 -15 39 0
-34 -16 40 0
-35 -17 33 0
-35 -18 34 0
-35 -19 35 0
-35 -20 36 0
-35 -21 37 0
-35 -22 38 0
-35 -23 39 0
-35 -24 40 0
-36 -25 33 0
-36 -26 34 0
-36 -27 35 0
-36 -28 36 0
-36 -29 37 0
-36 -30 38 0
-36 -31 39 0
-36 -32 40 0
-37 -33 33 0
-37 -34 34 0
-37 -35 35 0
-37 -36 36 0
-37 -37 37 0
-37 -38 38 0
-37 -39 39 0
-37 -40 40 0
-38 -41 33 0
-38 -42 34 0
-38 -43 35 0
-38 -44 36 0
-38 -45 37 0
-38 -46 38 0
-38 -47 39 0
-38 -48 40 0
-39 -49 33 0
-39 -50 34 0
-39 -51 35 0
-39 -52 36 0
-39 -53 37 0
-39 -54 38 0
-39 -55 39 0
-39 -56 40 0
-40 -57 33 0
-40 -58 34 0
-40 -59 35 0
-40 -60 36 0
-40 -61 37 0
-40 -62 38 0
-40 -63 39 0
-40 -64 40 0
-41 -1 41 0
-41 -2 42 0
-41 -3 43 0
-41 -4 44 0
-41 -5 45 0
-41 -6 46 0
-41 -7 47 0
-41 -8 48 0
-42 -9 41 0
-42 -10 42 0
-42 -11 43 0
-42 -12 44 0
-42 -13 45 0
-42 -14 46 0
-42 -15 47 0
-42 -16 48 0
-43 -17 41 0
-43 -18 42 0
-43 -19 43 0
-43 -20 44 0
-43 -21 45 0
-43 -22 46 0
-43 -23 47 0
-43 -24 48 0
-44 -25 41 0
-44 -26 42 0
-44 -27 43 0
-44 -28 44 0
-44 -29 45 0
-44 -30 46 0
-44 -31 47 0
-44 -32 48 0
-45 -33 41 0
-45 -34 42 0
-45 -35 43 0
-45 -36 44 0
-45 -37 45 0
-45 -38 46 0
-45 -39 47 0
-45 -40 48 0
-46 -41 41 0
-46 -42 42 0
-46 -43 43 0
-46 -44 44 0
-46 -45 45 0
-46 -46 46 0
-46 -47 47 0
-46 -48 48 0
-47 -49 41 0
-47 -50 42 0
-47 -51 43 0
-47 -52 44 0
-47 -53 45 0
-47 -54 46 0
-47 -55 47 0
-47 -56 48 0
-48 -57 41 0
-48 -58 42 0
-48 -59 43 0
-48 -60 44 0
-48 -61 45 0
-48 -62 46 0
-48 -63 47 0
-48 -64 48 0
-49 -1 49 0
-49 -2 50 0
-49 -3 51 0
-49 -4 52 0
-49 -5 53 0
-49 -6 54 0
-49 -7 55 0
-49 -8 56 0
-50 -9 49 0
-50 -10 50 0
-50 -11 51 0
-50 -12 52 0
-50 -13 53 0
-50 -14 54 0
-50 -15 55 0
-50 -16 56 0
-51 -17 49 0
-51 -18 50 0
-51 -19 51 0
-51 -20 52 0
-51 -21 53 0
-51 -22 54 0
-51 -23 55 0
-51 -24 56 0
-52 -25 49 0
-52 -26 50 0
-52 -27 51 0
-52 -28 52 0
-52 -29 53 0
-52 -30 54 0
-52 -31 55 0
-52 -32 56 0
-53 -33 49 0
-53 -34 50 0
-53 -35 51 0
-53 -36 52 0
-53 -37 53 0
-53 -38 54 0
-53 -39 55 0
-53 -40 56 0
-54 -41 49 0
-54 -42 50 0
-54 -43 51 0
-54 -44 52 0
-54 -45 53 0
-54 -46 54 0
-54 -47 55 0
-54 -48 56 0
-55 -49 49 0
-55 -50 50 0
-55 -51 51 0
-55 -52 52 0
-55 -53 53 0
-55 -54 54 0
-55 -55 55 0
-55 -56 56 0
-56 -57 49 0
-56 -58 50 0
-56 -59 51 0
-56 -60 52 0
-56 -61 53 0
-56 -62 54 0
-56 -63 55 0
-56 -64 56 0
-57 -1 57 0
-57 -2 58 0
-57 -3 59 0
-57 -4 60 0
-57 -5 61 0
-57 -6 62 0
-57 -7 63 0
-57 -8 64 0
-58 -9 57 0
-58 -10 58 0
-58 -11 59 0
-58 -12 60 0
-58 -13 61 0
-58 -14 62 0
-58 -15 63 0
-58 -16 64 0
-59 -17 57 0
-59 -18 58 0
-59 -19 59 0
-59 -20 60 0
-59 -21 61 0
-59 -22 62 0
-59 -23 63 0
-59 -24 64 0
-60 -25 57 0
-60 -26 58 0
-60 -27 59 0
-60 -28 60 0
-60 -29 61 0
-60 -30 62 0
-60 -31 63 0
-60 -32 64 0
-61 -33 57 0
-61 -34 58 0
-61 -35 59 0
-61 -36 60 0
-61 -37 61 0
-61 -38 62 0
-61 -39 63 0
-61 -40 64 0
-62 -41 57 0
-62 -42 58 0
-62 -43 59 0
-62 -44 60 0
-62 -45 61 0
-62 -46 62 0
-62 -47 63 0
-62 -48 64 0
-63 -49 57 0
-63 -50 58 0
-63 -51 59 0
-63 -52 60 0
-63 -53 61 0
-63 -54 62 0
-63 -55 63 0
-63 -56 64 0
-64 -57 57 0
-64 -58 58 0
-64 -59 59 0
-64 -60 60 0
-64 -61 61 0
-64 -62 62 0
-64 -63 63 0
-64 -64 64 0
